60 
300 
19.1 24.3 0 0
18.2 24 0 -17
12.6 24.9 20 -12
14.4 28 20 -16
16.9 28.1 -20 -103
20.7 28.2 -20 -91
12.5 26.6 -20 -116
21.8 27.3 -20 -138
12.5 22.6 20 -15
22.5 17 -30 -139
19.9 15 30 -28
14.9 15.1 30 -28
11.5 18.6 30 -12
12.4 29.8 -30 -119
17.8 28.1 30 -20
9.1 29.8 40 -16
10 32.6 -40 -64
13.9 33.1 -40 -77
19.95 10.3 40 -21
15.2 8 -40 -105
14.7 31.2 50 -14
7.4 36.5 50 -10
21 25.5 50 -28
18 25.3 10 -25
19.5 24.7 10 -15
21.4 21.8 10 -27
16 21.4 -10 -97
18.65 26.2 10 -11
17.9 28.9 -10 -74
14.3 19.9 20 -14
17 19 -20 -121
10.8 21 20 -13
15.7 23.7 -10 -99
